unsat
(:elim-unconstrained  2
 :max-memory          18.53
 :memory              18.43
 :nlsat-arith-var     3
 :nlsat-atoms         8
 :nlsat-bool-var      2
 :nlsat-clauses       7
 :nlsat-conflicts     3
 :nlsat-propagations  7
 :nlsat-stages        3
 :num-allocs          71894
 :rlimit-count        2699
 :solve-eqs-elim-vars 1
 :solve-eqs-steps     1
 :time                0.00
 :total-time          0.02)
